set N := 1 2 3;

param A :=
1 1 0
2 1 0.00000013725
3 1 0
1 2 0
2 2 937.62
3 2 0
1 3 0
2 3 -42.207
3 3 0;

param B :=
1 1 0.0060893
2 1 0.00000013880
3 1 -0.00000013877
1 2 -44.292
2 2 -1886.0
3 2 42.362
1 3 2.0011
2 3 42.362
3 3 -2.0705;

param C :=
1 1 0
2 1 0
3 1 0
1 2 44.792
2 2 948.21
3 2 -42.684
1 3 0
2 3 0
3 3 0;